
%FILE DATA:	Soccer Computational Problem for MiniZinc Models	%
%AUTHOR:	Jack Wall	%
%CONTACT:  	116397063@umail.ucc.ie			%
%LAST UPDATE:	03/03/2020, 12:29:48						%
%DESCRIPTION: 	80 games played with 10 games left				%


n=10; %number of teams

%Games to play
games=[|6,5|1,4|2,1|4,9|3,9|10,7|2,7|1,9|3,8|6,7|];

%Initial points
iPoints=[21,16,21,15,24,21,19,26,28,20];

%POSITION CONSTRAINTS
% [|teamID, operator, position|...]
% operators index:
%  1 for =  operator
%  2 for >  operator
%  3 for >= operator
%  4 for <  operator
%  5 for <= operator
positionConstraints=[|9,3,1|8,2,1|6,2,2|];